proyfinal/src/viki/013/andrea/andrea-localstore/experimentInOfficeAgust.take6/worker_8/08d7cd55-137e-4535-8cb9-53a1bcb3e125.als.cnf.out
Reading from standard input... Use '--help' for help.
============================[ Problem Statistics ]=============================
|                                                                             |
|  Number of variables:         87638                                         |
|  Number of clauses:          161767                                         |
|  Parse time:                   0.04 s                                       |
|                                                                             |
============================[ Search Statistics ]==============================
| Conflicts |          ORIGINAL         |          LEARNT          | Progress |
|           |    Vars  Clauses Literals |    Limit  Clauses Lit/Cl |          |
===============================================================================
|       100 |   62353   105044   262527 |    38516      100      9 | 28.852 % |
|       250 |   62353   105044   262527 |    42367      250     16 | 28.852 % |
|       475 |   62353   105044   262527 |    46604      475     97 | 28.852 % |
|       812 |   62353   105044   262527 |    51264      812     87 | 28.852 % |
|      1318 |   62353   105044   262527 |    56391     1318     88 | 28.852 % |
|      2077 |   62335   104932   262274 |    62030     1315     71 | 28.872 % |
|      3216 |   62295   104858   262103 |    68233     2452     82 | 28.918 % |
|      4924 |   62202   104540   261363 |    75057     3700     81 | 29.024 % |
|      7486 |   62137   104103   260382 |    82562     5952     74 | 29.098 % |
===============================================================================
restarts              : 45
conflicts             : 10098          (6165 /sec)
decisions             : 31660          (0.00 % random) (19329 /sec)
propagations          : 16795313       (10253611 /sec)
conflict literals     : 717147         (59.39 % deleted)
Memory used           : 25.30 MB
CPU time              : 1.63799 s

UNSATISFIABLE
